4 5
117 136 146 115 
0 57 58 68 76 87 95 19 13 91 26 10 68 47 9 62 36 26 9 42 12 1
1 46 54 93 97 40 31 66 74 51 60 97 85 26 49 71 87 38 17 26 89 4
2 50 40 6 11 81 81 53 60 34 19 14 34 31 17 67 72 56 65 11 19 3
3 4 9 71 64 20 10 58 65 29 86 62 77 91 100 32 52 94 81 87 62 2
4 83 74 29 25 75 75 21 18 23 73 64 32 94 1 94 74 66 32 71 7 2
